27 3
3 6 4
0 0 0 0 25 2 3 4 5 6 7 8 9 10 11 12 13 14 15 16 17 18 19 20 21 22 23 24 25 26
2 0 3 0 4 27 17 12 17
2 0 3 2 4 27 4 15 12
3 0 1 0 6 27 22 7 7 26 20
5 0 1 2 4 27 8 20 16
2 0 0 1 5 27 9 19 8 12
3 1 3 0 4 27 12 16 18
3 1 1 1 6 27 19 17 13 17 13
2 0 3 0 3 27 10 16
3 1 0 0 3 27 25 18
2 1 0 2 5 27 24 22 22 20
3 1 0 2 5 27 20 22 20 23
4 1 0 2 1 27
2 1 3 1 2 27 24
3 1 0 1 3 27 21 26
2 1 3 2 1 27
4 1 0 1 1 27
4 1 3 1 2 27 23
1 1 0 0 3 27 23 20
5 0 3 1 2 27 26
5 0 3 2 1 27
2 1 2 2 1 27
3 0 0 2 1 27
1 1 3 0 1 27
3 1 2 2 1 27
5 1 0 1 1 27
0 0 0 0 0
